# Fcc Al oriented X=[-110] Y=[112] Z=[11
   1.00000000000000     
    11.4268455800000002    0.0000000000000000    0.0000000000000000
     0.0000000000000000    9.8959385599999994    0.0000000000000000
     0.0000000000000000    0.0000000000000000   23.9949705299999998
   Al
    96
Direct
  0.0000000000000000  0.5000000000000000  0.0000000000000000
  0.8750000000000000  0.2500000000000000  0.0000000000000000
  0.1250000000000000  0.7500000000000000  0.0000000000000000
  0.6250000000000000  0.2500000000000000  0.0000000000000000
  0.5000000000000000  0.0000000000000000  0.0000000000000000
  0.7500000000000000  0.0000000000000000  0.0000000000000000
  0.7500000000000000  0.5000000000000000  0.0000000000000000
  0.6250000000000000  0.7500000000000000  0.0000000000000000
  0.8750000000000000  0.7500000000000000  0.0000000000000000
  0.3750000000000000  0.7500000000000000  0.0000000000000000
  0.2500000000000000  0.5000000000000000  0.0000000000000000
  0.5000000000000000  0.5000000000000000  0.0000000000000000
  0.3750000000000000  0.2500000000000000  0.0000000000000000
  0.2500000000000000  0.0000000000000000  0.0000000000000000
  0.1250000000000000  0.2500000000000000  0.0000000000000000
  0.0000000000000000  0.0000000000000000  0.0000000000000000
  0.6250000000000000  0.4166666599999971  0.1666666699999979
  0.0000000000000000  0.6666666599999971  0.1666666699999979
  0.3750000000000000  0.4166666599999971  0.1666666699999979
  0.5000000000000000  0.1666666599999971  0.1666666699999979
  0.8750000000000000  0.4166666599999971  0.1666666699999979
  0.5000000000000000  0.6666666599999971  0.1666666699999979
  0.0000000000000000  0.1666666599999971  0.1666666699999979
  0.7500000000000000  0.1666666599999971  0.1666666699999979
  0.2500000000000000  0.1666666599999971  0.1666666699999979
  0.7500000000000000  0.6666666599999971  0.1666666699999979
  0.3750000000000000  0.9166666599999971  0.1666666699999979
  0.8750000000000000  0.9166666599999971  0.1666666699999979
  0.1250000000000000  0.9166666599999971  0.1666666699999979
  0.6250000000000000  0.9166666599999971  0.1666666699999979
  0.2500000000000000  0.6666666599999971  0.1666666699999979
  0.1250000000000000  0.4166666599999971  0.1666666699999979
  0.1250000000000000  0.0833333300000021  0.3333333300000021
  0.2500000000000000  0.3333333300000021  0.3333333300000021
  0.0000000000000000  0.8333333300000021  0.3333333300000021
  0.5000000000000000  0.8333333300000021  0.3333333300000021
  0.3750000000000000  0.5833333300000021  0.3333333300000021
  0.0000000000000000  0.3333333300000021  0.3333333300000021
  0.7500000000000000  0.8333333300000021  0.3333333300000021
  0.6250000000000000  0.5833333300000021  0.3333333300000021
  0.1250000000000000  0.5833333300000021  0.3333333300000021
  0.2500000000000000  0.8333333300000021  0.3333333300000021
  0.8750000000000000  0.5833333300000021  0.3333333300000021
  0.7500000000000000  0.3333333300000021  0.3333333300000021
  0.6250000000000000  0.0833333300000021  0.3333333300000021
  0.8750000000000000  0.0833333300000021  0.3333333300000021
  0.5000000000000000  0.3333333300000021  0.3333333300000021
  0.3750000000000000  0.0833333300000021  0.3333333300000021
  0.6250000000000000  0.7500000000000000  0.5000000000000000
  0.5000000000000000  0.5000000000000000  0.5000000000000000
  0.8750000000000000  0.7500000000000000  0.5000000000000000
  0.7500000000000000  0.5000000000000000  0.5000000000000000
  0.1250000000000000  0.7500000000000000  0.5000000000000000
  0.0000000000000000  0.5000000000000000  0.5000000000000000
  0.3750000000000000  0.7500000000000000  0.5000000000000000
  0.2500000000000000  0.5000000000000000  0.5000000000000000
  0.3750000000000000  0.2500000000000000  0.5000000000000000
  0.7500000000000000  0.0000000000000000  0.5000000000000000
  0.5000000000000000  0.0000000000000000  0.5000000000000000
  0.2500000000000000  0.0000000000000000  0.5000000000000000
  0.1250000000000000  0.2500000000000000  0.5000000000000000
  0.8750000000000000  0.2500000000000000  0.5000000000000000
  0.0000000000000000  0.0000000000000000  0.5000000000000000
  0.6250000000000000  0.2500000000000000  0.5000000000000000
  0.2500000000000000  0.1666666599999971  0.6666666699999979
  0.3750000000000000  0.4166666599999971  0.6666666699999979
  0.5000000000000000  0.1666666599999971  0.6666666699999979
  0.7500000000000000  0.6666666599999971  0.6666666699999979
  0.6250000000000000  0.9166666599999971  0.6666666699999979
  0.8750000000000000  0.9166666599999971  0.6666666699999979
  0.5000000000000000  0.6666666599999971  0.6666666699999979
  0.1250000000000000  0.4166666599999971  0.6666666699999979
  0.0000000000000000  0.1666666599999971  0.6666666699999979
  0.6250000000000000  0.4166666599999971  0.6666666699999979
  0.1250000000000000  0.9166666599999971  0.6666666699999979
  0.2500000000000000  0.6666666599999971  0.6666666699999979
  0.7500000000000000  0.1666666599999971  0.6666666699999979
  0.8750000000000000  0.4166666599999971  0.6666666699999979
  0.0000000000000000  0.6666666599999971  0.6666666699999979
  0.3750000000000000  0.9166666599999971  0.6666666699999979
  0.7500000000000000  0.3333333300000021  0.8333333300000021
  0.0000000000000000  0.3333333300000021  0.8333333300000021
  0.0000000000000000  0.8333333300000021  0.8333333300000021
  0.6250000000000000  0.5833333300000021  0.8333333300000021
  0.8750000000000000  0.0833333300000021  0.8333333300000021
  0.8750000000000000  0.5833333300000021  0.8333333300000021
  0.7500000000000000  0.8333333300000021  0.8333333300000021
  0.5000000000000000  0.3333333300000021  0.8333333300000021
  0.3750000000000000  0.0833333300000021  0.8333333300000021
  0.6250000000000000  0.0833333300000021  0.8333333300000021
  0.2500000000000000  0.8333333300000021  0.8333333300000021
  0.2500000000000000  0.3333333300000021  0.8333333300000021
  0.5000000000000000  0.8333333300000021  0.8333333300000021
  0.3750000000000000  0.5833333300000021  0.8333333300000021
  0.1250000000000000  0.0833333300000021  0.8333333300000021
  0.1250000000000000  0.5833333300000021  0.8333333300000021
 
  0.00000000E+00  0.00000000E+00  0.00000000E+00
  0.00000000E+00  0.00000000E+00  0.00000000E+00
  0.00000000E+00  0.00000000E+00  0.00000000E+00
  0.00000000E+00  0.00000000E+00  0.00000000E+00
  0.00000000E+00  0.00000000E+00  0.00000000E+00
  0.00000000E+00  0.00000000E+00  0.00000000E+00
  0.00000000E+00  0.00000000E+00  0.00000000E+00
  0.00000000E+00  0.00000000E+00  0.00000000E+00
  0.00000000E+00  0.00000000E+00  0.00000000E+00
  0.00000000E+00  0.00000000E+00  0.00000000E+00
  0.00000000E+00  0.00000000E+00  0.00000000E+00
  0.00000000E+00  0.00000000E+00  0.00000000E+00
  0.00000000E+00  0.00000000E+00  0.00000000E+00
  0.00000000E+00  0.00000000E+00  0.00000000E+00
  0.00000000E+00  0.00000000E+00  0.00000000E+00
  0.00000000E+00  0.00000000E+00  0.00000000E+00
  0.00000000E+00  0.00000000E+00  0.00000000E+00
  0.00000000E+00  0.00000000E+00  0.00000000E+00
  0.00000000E+00  0.00000000E+00  0.00000000E+00
  0.00000000E+00  0.00000000E+00  0.00000000E+00
  0.00000000E+00  0.00000000E+00  0.00000000E+00
  0.00000000E+00  0.00000000E+00  0.00000000E+00
  0.00000000E+00  0.00000000E+00  0.00000000E+00
  0.00000000E+00  0.00000000E+00  0.00000000E+00
  0.00000000E+00  0.00000000E+00  0.00000000E+00
  0.00000000E+00  0.00000000E+00  0.00000000E+00
  0.00000000E+00  0.00000000E+00  0.00000000E+00
  0.00000000E+00  0.00000000E+00  0.00000000E+00
  0.00000000E+00  0.00000000E+00  0.00000000E+00
  0.00000000E+00  0.00000000E+00  0.00000000E+00
  0.00000000E+00  0.00000000E+00  0.00000000E+00
  0.00000000E+00  0.00000000E+00  0.00000000E+00
  0.00000000E+00  0.00000000E+00  0.00000000E+00
  0.00000000E+00  0.00000000E+00  0.00000000E+00
  0.00000000E+00  0.00000000E+00  0.00000000E+00
  0.00000000E+00  0.00000000E+00  0.00000000E+00
  0.00000000E+00  0.00000000E+00  0.00000000E+00
  0.00000000E+00  0.00000000E+00  0.00000000E+00
  0.00000000E+00  0.00000000E+00  0.00000000E+00
  0.00000000E+00  0.00000000E+00  0.00000000E+00
  0.00000000E+00  0.00000000E+00  0.00000000E+00
  0.00000000E+00  0.00000000E+00  0.00000000E+00
  0.00000000E+00  0.00000000E+00  0.00000000E+00
  0.00000000E+00  0.00000000E+00  0.00000000E+00
  0.00000000E+00  0.00000000E+00  0.00000000E+00
  0.00000000E+00  0.00000000E+00  0.00000000E+00
  0.00000000E+00  0.00000000E+00  0.00000000E+00
  0.00000000E+00  0.00000000E+00  0.00000000E+00
  0.00000000E+00  0.00000000E+00  0.00000000E+00
  0.00000000E+00  0.00000000E+00  0.00000000E+00
  0.00000000E+00  0.00000000E+00  0.00000000E+00
  0.00000000E+00  0.00000000E+00  0.00000000E+00
  0.00000000E+00  0.00000000E+00  0.00000000E+00
  0.00000000E+00  0.00000000E+00  0.00000000E+00
  0.00000000E+00  0.00000000E+00  0.00000000E+00
  0.00000000E+00  0.00000000E+00  0.00000000E+00
  0.00000000E+00  0.00000000E+00  0.00000000E+00
  0.00000000E+00  0.00000000E+00  0.00000000E+00
  0.00000000E+00  0.00000000E+00  0.00000000E+00
  0.00000000E+00  0.00000000E+00  0.00000000E+00
  0.00000000E+00  0.00000000E+00  0.00000000E+00
  0.00000000E+00  0.00000000E+00  0.00000000E+00
  0.00000000E+00  0.00000000E+00  0.00000000E+00
  0.00000000E+00  0.00000000E+00  0.00000000E+00
  0.00000000E+00  0.00000000E+00  0.00000000E+00
  0.00000000E+00  0.00000000E+00  0.00000000E+00
  0.00000000E+00  0.00000000E+00  0.00000000E+00
  0.00000000E+00  0.00000000E+00  0.00000000E+00
  0.00000000E+00  0.00000000E+00  0.00000000E+00
  0.00000000E+00  0.00000000E+00  0.00000000E+00
  0.00000000E+00  0.00000000E+00  0.00000000E+00
  0.00000000E+00  0.00000000E+00  0.00000000E+00
  0.00000000E+00  0.00000000E+00  0.00000000E+00
  0.00000000E+00  0.00000000E+00  0.00000000E+00
  0.00000000E+00  0.00000000E+00  0.00000000E+00
  0.00000000E+00  0.00000000E+00  0.00000000E+00
  0.00000000E+00  0.00000000E+00  0.00000000E+00
  0.00000000E+00  0.00000000E+00  0.00000000E+00
  0.00000000E+00  0.00000000E+00  0.00000000E+00
  0.00000000E+00  0.00000000E+00  0.00000000E+00
  0.00000000E+00  0.00000000E+00  0.00000000E+00
  0.00000000E+00  0.00000000E+00  0.00000000E+00
  0.00000000E+00  0.00000000E+00  0.00000000E+00
  0.00000000E+00  0.00000000E+00  0.00000000E+00
  0.00000000E+00  0.00000000E+00  0.00000000E+00
  0.00000000E+00  0.00000000E+00  0.00000000E+00
  0.00000000E+00  0.00000000E+00  0.00000000E+00
  0.00000000E+00  0.00000000E+00  0.00000000E+00
  0.00000000E+00  0.00000000E+00  0.00000000E+00
  0.00000000E+00  0.00000000E+00  0.00000000E+00
  0.00000000E+00  0.00000000E+00  0.00000000E+00
  0.00000000E+00  0.00000000E+00  0.00000000E+00
  0.00000000E+00  0.00000000E+00  0.00000000E+00
  0.00000000E+00  0.00000000E+00  0.00000000E+00
  0.00000000E+00  0.00000000E+00  0.00000000E+00
  0.00000000E+00  0.00000000E+00  0.00000000E+00
